3077226
58,8,68,50,52,18,31,14,22,57,10,37,35,13,54,19,49,40,5,1,60,23,29,3,38,32,12,47,20,4,9,15,36,28,63,2,48,16,59,65,42,56,21,61,25,30,41,64,11,55,26,6,66,34,67,7,43,46,33,44,53,62,39,51,27,45,17,24,58